Gurobi Optimizer version 9.1.2 build v9.1.2rc0 (linux64)
Thread count: 36 physical cores, 72 logical processors, using up to 32 threads
Optimize a model with 12 rows, 57 columns and 590 nonzeros
Model fingerprint: 0xf32eec78
Model has 47 quadratic constraints
Coefficient statistics:
  Matrix range     [2e-05, 3e+00]
  QMatrix range    [1e+00, 1e+00]
  QLMatrix range   [1e+00, 1e+00]
  Objective range  [8e-03, 7e-01]
  Bounds range     [1e+00, 1e+00]
  RHS range        [1e+00, 1e+00]
Presolve removed 9 rows and 0 columns

Continuous model is non-convex -- solving as a MIP.

Presolve removed 9 rows and 0 columns
Presolve time: 0.00s
Presolved: 189 rows, 57 columns, 443 nonzeros
Presolved model has 47 bilinear constraint(s)
Variable types: 57 continuous, 0 integer (0 binary)

Root relaxation: objective -1.743721e+00, 44 iterations, 0.00 seconds

    Nodes    |    Current Node    |     Objective Bounds      |     Work
 Expl Unexpl |  Obj  Depth IntInf | Incumbent    BestBd   Gap | It/Node Time

     0     0   -1.74372    0   38          -   -1.74372      -     -    0s
H    0     0                       0.6147548   -1.74372   384%     -    0s
     0     0   -1.64739    0    1    0.61475   -1.64739   368%     -    0s
H    0     0                      -1.6450460   -1.64739  0.14%     -    0s
     0     0     cutoff    0        -1.64505   -1.64505  0.00%     -    0s

Cutting planes:
  RLT: 25
  BQP: 3

Explored 1 nodes (76 simplex iterations) in 0.01 seconds
Thread count was 32 (of 72 available processors)

Solution count 2: -1.64505 0.614755 
No other solutions better than -1.64505

Optimal solution found (tolerance 1.00e-04)
Best objective -1.645045978473e+00, best bound -1.645045978473e+00, gap 0.0000%

User-callback calls 78, time in user-callback 0.00 sec
Gurobi Optimizer version 9.1.2 build v9.1.2rc0 (linux64)
Thread count: 36 physical cores, 72 logical processors, using up to 32 threads
Optimize a model with 24 rows, 120 columns and 2480 nonzeros
Model fingerprint: 0xdfa98212
Model has 100 quadratic constraints
Coefficient statistics:
  Matrix range     [8e-06, 4e+00]
  QMatrix range    [1e+00, 1e+00]
  QLMatrix range   [1e+00, 1e+00]
  Objective range  [9e-03, 2e+00]
  Bounds range     [1e+00, 1e+00]
  RHS range        [1e+00, 1e+00]
Presolve removed 17 rows and 0 columns

Continuous model is non-convex -- solving as a MIP.

Presolve removed 17 rows and 0 columns
Presolve time: 0.00s
Presolved: 407 rows, 120 columns, 1232 nonzeros
Presolved model has 100 bilinear constraint(s)
Variable types: 120 continuous, 0 integer (0 binary)

Root relaxation: objective -1.282595e+01, 134 iterations, 0.00 seconds

    Nodes    |    Current Node    |     Objective Bounds      |     Work
 Expl Unexpl |  Obj  Depth IntInf | Incumbent    BestBd   Gap | It/Node Time

     0     0  -12.82595    0   84          -  -12.82595      -     -    0s
H    0     0                       1.1314803  -12.82595  1234%     -    0s
     0     0   -9.07249    0  100    1.13148   -9.07249   902%     -    0s
     0     0   -9.05283    0  100    1.13148   -9.05283   900%     -    0s
     0     0   -8.06357    0   90    1.13148   -8.06357   813%     -    0s
H    0     0                      -0.0946475   -8.06357  8420%     -    0s
     0     0   -8.03201    0   90   -0.09465   -8.03201  8386%     -    0s
     0     0   -7.72304    0   90   -0.09465   -7.72304  8060%     -    0s
H    0     0                      -1.2301571   -7.72304   528%     -    0s
     0     0   -7.71140    0   90   -1.23016   -7.71140   527%     -    0s
     0     0   -7.56685    0  100   -1.23016   -7.56685   515%     -    0s
     0     0   -7.55067    0  100   -1.23016   -7.55067   514%     -    0s
     0     0   -7.49805    0   90   -1.23016   -7.49805   510%     -    0s
     0     0   -7.49084    0  100   -1.23016   -7.49084   509%     -    0s
     0     0   -7.49002    0  100   -1.23016   -7.49002   509%     -    0s
     0     0   -7.48606    0  100   -1.23016   -7.48606   509%     -    0s
H    0     0                      -2.2755901   -7.48606   229%     -    0s
H    0     0                      -3.9103371   -7.48606  91.4%     -    0s
H    0     0                      -3.9253212   -7.48606  90.7%     -    0s
     0     2   -7.48606    0  100   -3.92532   -7.48606  90.7%     -    0s
*  865   962              19      -5.7524845   -6.53776  13.7%  30.5    0s
* 1648   796              27      -5.7611117   -6.15127  6.77%  24.9    0s
* 1776   796              25      -5.7701696   -6.15127  6.60%  24.3    0s
* 1879  1043              32      -5.9318858   -6.15127  3.70%  23.5    0s
* 1936  1043              22      -5.9572822   -6.15127  3.26%  23.2    0s
* 2238   827              21      -5.9573428   -6.07551  1.98%  21.4    0s
* 2252   827              22      -5.9575730   -6.00888  0.86%  21.3    0s
* 2336   827              18      -5.9600761   -5.96008  0.00%  20.6    0s

Cutting planes:
  RLT: 82
  BQP: 15
  PSD: 15

Explored 2679 nodes (49841 simplex iterations) in 0.72 seconds
Thread count was 32 (of 72 available processors)

Solution count 10: -5.96008 -5.95757 -5.95734 ... -3.91034
No other solutions better than -5.96008

Optimal solution found (tolerance 1.00e-04)
Best objective -5.960076124420e+00, best bound -5.960076124420e+00, gap 0.0000%

User-callback calls 5632, time in user-callback 0.00 sec



objective value: -5.960076124419536
objective bound: -5.960076124419536
x_opt: [0.0, 1.0, 1.0, 1.0, 1.0, 0.0, 0.0, 0.0, 0.27949787421281735, 1.0, 0.0, 0.2251560715529404, 1.0, 1.0, 0.9999999999999999, 0.0, 0.0, 0.0, 0.053100767213279276, 0.4949207880657804]
GUROBI solution time: 0.7199299335479736




